unsat
(error "line 4237 column 17: model is not available")
(error "line 4238 column 17: model is not available")
(error "line 4239 column 18: model is not available")
(error "line 4240 column 19: model is not available")
(error "line 4241 column 19: model is not available")
(error "line 4242 column 19: model is not available")
(error "line 4243 column 19: model is not available")
(error "line 4244 column 19: model is not available")
(error "line 4245 column 19: model is not available")
(error "line 4246 column 19: model is not available")
(error "line 4247 column 19: model is not available")
(error "line 4248 column 19: model is not available")
(error "line 4249 column 19: model is not available")
(error "line 4250 column 18: model is not available")
(error "line 4251 column 19: model is not available")
(error "line 4252 column 19: model is not available")
(error "line 4253 column 19: model is not available")
(error "line 4254 column 19: model is not available")
(error "line 4255 column 19: model is not available")
(error "line 4256 column 19: model is not available")
(error "line 4257 column 19: model is not available")
(error "line 4258 column 19: model is not available")
(error "line 4259 column 19: model is not available")
(error "line 4260 column 19: model is not available")
(error "line 4261 column 18: model is not available")
(error "line 4262 column 19: model is not available")
(error "line 4263 column 19: model is not available")
(error "line 4264 column 19: model is not available")
(error "line 4265 column 19: model is not available")
(error "line 4266 column 19: model is not available")
(error "line 4267 column 19: model is not available")
(error "line 4268 column 19: model is not available")
(error "line 4269 column 19: model is not available")
(error "line 4270 column 19: model is not available")
(error "line 4271 column 19: model is not available")
(error "line 4272 column 18: model is not available")
(error "line 4273 column 19: model is not available")
(error "line 4274 column 19: model is not available")
(error "line 4275 column 19: model is not available")
(error "line 4276 column 19: model is not available")
(error "line 4277 column 19: model is not available")
(error "line 4278 column 19: model is not available")
(error "line 4279 column 19: model is not available")
(error "line 4280 column 19: model is not available")
(error "line 4281 column 19: model is not available")
(error "line 4282 column 19: model is not available")
(error "line 4283 column 18: model is not available")
(error "line 4284 column 19: model is not available")
(error "line 4285 column 19: model is not available")
(error "line 4286 column 19: model is not available")
(error "line 4287 column 19: model is not available")
(error "line 4288 column 19: model is not available")
(error "line 4289 column 19: model is not available")
(error "line 4290 column 19: model is not available")
(error "line 4291 column 19: model is not available")
(error "line 4292 column 18: model is not available")
(error "line 4293 column 18: model is not available")
(error "line 4294 column 18: model is not available")
(error "line 4295 column 18: model is not available")
(error "line 4296 column 18: model is not available")
(error "line 4297 column 17: model is not available")
(error "line 4298 column 18: model is not available")
(error "line 4299 column 18: model is not available")
(error "line 4300 column 18: model is not available")
(error "line 4301 column 18: model is not available")
(error "line 4302 column 18: model is not available")
(error "line 4303 column 18: model is not available")
(error "line 4304 column 18: model is not available")
(error "line 4305 column 18: model is not available")
(error "line 4306 column 18: model is not available")
(error "line 4307 column 18: model is not available")
(error "line 4308 column 17: model is not available")
(error "line 4309 column 18: model is not available")
(error "line 4310 column 18: model is not available")
(error "line 4311 column 18: model is not available")
(error "line 4312 column 18: model is not available")
(error "line 4313 column 18: model is not available")
(error "line 4314 column 18: model is not available")
(error "line 4315 column 18: model is not available")
(error "line 4316 column 18: model is not available")
(error "line 4317 column 18: model is not available")
(error "line 4318 column 18: model is not available")
(error "line 4319 column 17: model is not available")
(error "line 4320 column 18: model is not available")
(error "line 4321 column 18: model is not available")
(error "line 4322 column 18: model is not available")
(error "line 4323 column 18: model is not available")
(error "line 4324 column 18: model is not available")
(error "line 4325 column 18: model is not available")
(error "line 4326 column 18: model is not available")
(error "line 4327 column 18: model is not available")
(error "line 4328 column 18: model is not available")
(error "line 4329 column 18: model is not available")
(error "line 4330 column 17: model is not available")
(error "line 4331 column 18: model is not available")
(error "line 4332 column 18: model is not available")
(error "line 4333 column 18: model is not available")
(error "line 4334 column 18: model is not available")
(error "line 4335 column 18: model is not available")
(error "line 4336 column 18: model is not available")
(error "line 4337 column 18: model is not available")
(error "line 4338 column 18: model is not available")
(error "line 4339 column 18: model is not available")
(error "line 4340 column 18: model is not available")
(error "line 4341 column 17: model is not available")
(error "line 4342 column 18: model is not available")
(error "line 4343 column 18: model is not available")
(error "line 4344 column 18: model is not available")
(error "line 4345 column 18: model is not available")
(error "line 4346 column 18: model is not available")
(error "line 4347 column 18: model is not available")
(error "line 4348 column 18: model is not available")
(error "line 4349 column 18: model is not available")
(error "line 4350 column 18: model is not available")
(error "line 4351 column 18: model is not available")
(error "line 4352 column 17: model is not available")
(error "line 4353 column 18: model is not available")
(error "line 4354 column 18: model is not available")
(error "line 4355 column 18: model is not available")
(error "line 4356 column 18: model is not available")
(error "line 4357 column 18: model is not available")
(error "line 4358 column 18: model is not available")
(error "line 4359 column 18: model is not available")
(error "line 4360 column 18: model is not available")
(error "line 4361 column 18: model is not available")
(error "line 4362 column 18: model is not available")
(error "line 4363 column 17: model is not available")
(error "line 4364 column 18: model is not available")
(error "line 4365 column 18: model is not available")
(error "line 4366 column 18: model is not available")
(error "line 4367 column 18: model is not available")
(error "line 4368 column 18: model is not available")
(error "line 4369 column 18: model is not available")
(error "line 4370 column 18: model is not available")
(error "line 4371 column 18: model is not available")
(error "line 4372 column 18: model is not available")
(error "line 4373 column 18: model is not available")
(error "line 4374 column 17: model is not available")
(error "line 4375 column 18: model is not available")
(error "line 4376 column 18: model is not available")
(error "line 4377 column 18: model is not available")
(error "line 4378 column 18: model is not available")
(error "line 4379 column 18: model is not available")
(error "line 4380 column 18: model is not available")
(error "line 4381 column 18: model is not available")
(error "line 4382 column 18: model is not available")
(error "line 4383 column 18: model is not available")
(error "line 4384 column 18: model is not available")
(error "line 4385 column 38: model is not available")
(error "line 4386 column 45: model is not available")
(error "line 4387 column 38: model is not available")
(error "line 4388 column 45: model is not available")
(error "line 4389 column 46: model is not available")
(error "line 4390 column 53: model is not available")
(error "line 4391 column 40: model is not available")
(error "line 4392 column 47: model is not available")
(error "line 4393 column 38: model is not available")
(error "line 4394 column 45: model is not available")
(error "line 4395 column 38: model is not available")
(error "line 4396 column 45: model is not available")
(error "line 4397 column 41: model is not available")
(error "line 4398 column 48: model is not available")
(error "line 4399 column 41: model is not available")
(error "line 4400 column 48: model is not available")
(error "line 4401 column 41: model is not available")
(error "line 4402 column 48: model is not available")
(error "line 4403 column 41: model is not available")
(error "line 4404 column 41: model is not available")
(error "line 4405 column 48: model is not available")
(error "line 4406 column 41: model is not available")
(error "line 4407 column 48: model is not available")
(error "line 4408 column 41: model is not available")
(error "line 4409 column 41: model is not available")
(error "line 4410 column 48: model is not available")
(error "line 4411 column 37: model is not available")
(error "line 4412 column 44: model is not available")
(error "line 4413 column 42: model is not available")
(error "line 4414 column 42: model is not available")
(error "line 4415 column 42: model is not available")
(error "line 4416 column 42: model is not available")
(error "line 4417 column 38: model is not available")
(error "line 4418 column 38: model is not available")
(error "line 4419 column 38: model is not available")
(error "line 4420 column 38: model is not available")
(error "line 4421 column 38: model is not available")
(error "line 4422 column 38: model is not available")
(error "line 4423 column 38: model is not available")
(error "line 4424 column 41: model is not available")
(error "line 4425 column 48: model is not available")
(error "line 4426 column 41: model is not available")
(error "line 4427 column 48: model is not available")
(error "line 4428 column 41: model is not available")
(error "line 4429 column 48: model is not available")
(error "line 4430 column 41: model is not available")
(error "line 4431 column 48: model is not available")
(error "line 4432 column 41: model is not available")
(error "line 4433 column 48: model is not available")
(error "line 4434 column 41: model is not available")
(error "line 4435 column 48: model is not available")
(error "line 4436 column 41: model is not available")
(error "line 4437 column 48: model is not available")
(error "line 4438 column 47: model is not available")
(error "line 4439 column 47: model is not available")
(error "line 4440 column 47: model is not available")
(error "line 4441 column 47: model is not available")
(error "line 4442 column 47: model is not available")
(error "line 4443 column 47: model is not available")
(error "line 4444 column 18: model is not available")
(error "line 4445 column 25: model is not available")
(error "line 4446 column 19: model is not available")
(error "line 4447 column 26: model is not available")
(error "line 4448 column 19: model is not available")
(error "line 4449 column 26: model is not available")
(error "line 4450 column 19: model is not available")
(error "line 4451 column 26: model is not available")
(error "line 4452 column 19: model is not available")
(error "line 4453 column 26: model is not available")
(error "line 4454 column 19: model is not available")
(error "line 4455 column 26: model is not available")
(error "line 4456 column 19: model is not available")
(error "line 4457 column 26: model is not available")
(error "line 4458 column 19: model is not available")
(error "line 4459 column 26: model is not available")
(error "line 4460 column 18: model is not available")
(error "line 4461 column 25: model is not available")
(error "line 4462 column 18: model is not available")
(error "line 4463 column 25: model is not available")
(error "line 4464 column 18: model is not available")
(error "line 4465 column 25: model is not available")
(error "line 4466 column 18: model is not available")
(error "line 4467 column 25: model is not available")
(error "line 4468 column 18: model is not available")
(error "line 4469 column 25: model is not available")
(error "line 4470 column 18: model is not available")
(error "line 4471 column 25: model is not available")
(error "line 4472 column 18: model is not available")
(error "line 4473 column 25: model is not available")
(error "line 4474 column 18: model is not available")
(error "line 4475 column 25: model is not available")
(error "line 4476 column 64: model is not available")
(error "line 4477 column 64: model is not available")
(error "line 4478 column 64: model is not available")
(error "line 4479 column 64: model is not available")
(error "line 4480 column 64: model is not available")
(error "line 4481 column 64: model is not available")
(error "line 4482 column 63: model is not available")
(error "line 4483 column 63: model is not available")
(error "line 4484 column 63: model is not available")
(error "line 4485 column 63: model is not available")
(error "line 4486 column 63: model is not available")
(error "line 4487 column 63: model is not available")
(error "line 4488 column 63: model is not available")
(error "line 4489 column 63: model is not available")
(error "line 4490 column 63: model is not available")
(error "line 4491 column 63: model is not available")
(error "line 4492 column 63: model is not available")
(error "line 4493 column 63: model is not available")
(error "line 4494 column 63: model is not available")
(error "line 4495 column 63: model is not available")
(error "line 4496 column 63: model is not available")
(error "line 4497 column 38: model is not available")
(error "line 4498 column 39: model is not available")
(error "line 4499 column 39: model is not available")
(error "line 4500 column 39: model is not available")
(error "line 4501 column 39: model is not available")
(error "line 4502 column 39: model is not available")
(error "line 4503 column 39: model is not available")
(error "line 4504 column 39: model is not available")
(error "line 4505 column 39: model is not available")
(error "line 4506 column 39: model is not available")
(error "line 4507 column 38: model is not available")
(error "line 4508 column 38: model is not available")
(error "line 4509 column 38: model is not available")
(error "line 4510 column 38: model is not available")
(error "line 4511 column 38: model is not available")
(error "line 4512 column 38: model is not available")
(error "line 4513 column 38: model is not available")
(error "line 4514 column 38: model is not available")
(error "line 4515 column 36: model is not available")
(error "line 4516 column 36: model is not available")
(error "line 4517 column 36: model is not available")
(error "line 4518 column 29: model is not available")
(error "line 4519 column 31: model is not available")
(error "line 4520 column 38: model is not available")
(error "line 4521 column 31: model is not available")
(error "line 4522 column 38: model is not available")
(error "line 4523 column 31: model is not available")
(error "line 4524 column 38: model is not available")
(error "line 4525 column 31: model is not available")
(error "line 4526 column 38: model is not available")
(error "line 4527 column 53: model is not available")
(error "line 4528 column 51: model is not available")
(error "line 4529 column 53: model is not available")
(error "line 4530 column 53: model is not available")
(error "line 4531 column 52: model is not available")
(error "line 4532 column 52: model is not available")
(error "line 4533 column 52: model is not available")
(error "line 4534 column 52: model is not available")
(error "line 4535 column 53: model is not available")
(error "line 4536 column 53: model is not available")
(error "line 4537 column 53: model is not available")
(error "line 4538 column 51: model is not available")
(error "line 4539 column 52: model is not available")
(error "line 4540 column 52: model is not available")
(error "line 4541 column 52: model is not available")
(error "line 4542 column 51: model is not available")
(error "line 4543 column 51: model is not available")
(error "line 4544 column 52: model is not available")
(error "line 4545 column 52: model is not available")
(error "line 4546 column 52: model is not available")
(error "line 4547 column 52: model is not available")
(error "line 4548 column 52: model is not available")
(error "line 4549 column 52: model is not available")
(error "line 4550 column 52: model is not available")
(error "line 4551 column 52: model is not available")
(error "line 4552 column 52: model is not available")
(error "line 4553 column 51: model is not available")
(error "line 4554 column 52: model is not available")
(error "line 4555 column 51: model is not available")
(error "line 4556 column 52: model is not available")
(error "line 4557 column 51: model is not available")
(error "line 4558 column 51: model is not available")
(error "line 4559 column 51: model is not available")
(error "line 4560 column 52: model is not available")
(error "line 4561 column 51: model is not available")
(error "line 4562 column 52: model is not available")
(error "line 4563 column 51: model is not available")
(error "line 4564 column 51: model is not available")
(error "line 4565 column 51: model is not available")
(error "line 4566 column 52: model is not available")
(error "line 4567 column 51: model is not available")
(error "line 4568 column 52: model is not available")
(error "line 4569 column 51: model is not available")
(error "line 4570 column 52: model is not available")
(error "line 4571 column 52: model is not available")
(error "line 4572 column 52: model is not available")
(error "line 4573 column 53: model is not available")
(error "line 4574 column 53: model is not available")
(error "line 4575 column 53: model is not available")
(error "line 4576 column 51: model is not available")
(error "line 4577 column 52: model is not available")
(error "line 4578 column 52: model is not available")
(error "line 4579 column 52: model is not available")
(error "line 4580 column 51: model is not available")
(error "line 4581 column 51: model is not available")
(error "line 4582 column 52: model is not available")
(error "line 4583 column 52: model is not available")
(error "line 4584 column 52: model is not available")
(error "line 4585 column 52: model is not available")
(error "line 4586 column 52: model is not available")
(error "line 4587 column 52: model is not available")
(error "line 4588 column 52: model is not available")
(error "line 4589 column 52: model is not available")
(error "line 4590 column 52: model is not available")
(error "line 4591 column 51: model is not available")
(error "line 4592 column 52: model is not available")
(error "line 4593 column 51: model is not available")
(error "line 4594 column 52: model is not available")
(error "line 4595 column 51: model is not available")
(error "line 4596 column 51: model is not available")
(error "line 4597 column 52: model is not available")
(error "line 4598 column 51: model is not available")
(error "line 4599 column 51: model is not available")
(error "line 4600 column 52: model is not available")
(error "line 4601 column 51: model is not available")
(error "line 4602 column 51: model is not available")
(error "line 4603 column 52: model is not available")
(error "line 4604 column 51: model is not available")
(error "line 4605 column 51: model is not available")
(error "line 4606 column 53: model is not available")
(error "line 4607 column 52: model is not available")
(error "line 4608 column 52: model is not available")
(error "line 4609 column 52: model is not available")
(error "line 4610 column 52: model is not available")
(error "line 4611 column 53: model is not available")
(error "line 4612 column 53: model is not available")
(error "line 4613 column 53: model is not available")
(error "line 4614 column 51: model is not available")
(error "line 4615 column 52: model is not available")
(error "line 4616 column 52: model is not available")
(error "line 4617 column 52: model is not available")
(error "line 4618 column 51: model is not available")
(error "line 4619 column 51: model is not available")
(error "line 4620 column 52: model is not available")
(error "line 4621 column 52: model is not available")
(error "line 4622 column 52: model is not available")
(error "line 4623 column 52: model is not available")
(error "line 4624 column 52: model is not available")
(error "line 4625 column 52: model is not available")
(error "line 4626 column 52: model is not available")
(error "line 4627 column 52: model is not available")
(error "line 4628 column 52: model is not available")
(error "line 4629 column 52: model is not available")
(error "line 4630 column 53: model is not available")
(error "line 4631 column 52: model is not available")
(error "line 4632 column 53: model is not available")
(error "line 4633 column 52: model is not available")
(error "line 4634 column 52: model is not available")
(error "line 4635 column 53: model is not available")
(error "line 4636 column 52: model is not available")
(error "line 4637 column 53: model is not available")
(error "line 4638 column 52: model is not available")
(error "line 4639 column 52: model is not available")
(error "line 4640 column 52: model is not available")
(error "line 4641 column 53: model is not available")
(error "line 4642 column 52: model is not available")
(error "line 4643 column 53: model is not available")
(error "line 4644 column 52: model is not available")
(error "line 4645 column 52: model is not available")
(error "line 4646 column 57: model is not available")
(error "line 4647 column 57: model is not available")
(error "line 4648 column 57: model is not available")
(error "line 4649 column 58: model is not available")
(error "line 4650 column 58: model is not available")
(error "line 4651 column 58: model is not available")
(error "line 4652 column 57: model is not available")
(error "line 4653 column 57: model is not available")
(error "line 4654 column 57: model is not available")
(error "line 4655 column 57: model is not available")
(error "line 4656 column 56: model is not available")
(error "line 4657 column 57: model is not available")
(error "line 4658 column 56: model is not available")
(error "line 4659 column 57: model is not available")
(error "line 4660 column 56: model is not available")
(error "line 4661 column 58: model is not available")
(error "line 4662 column 57: model is not available")
(error "line 4663 column 58: model is not available")
(error "line 4664 column 57: model is not available")
(error "line 4665 column 58: model is not available")
(error "line 4666 column 58: model is not available")
(error "line 4667 column 58: model is not available")
(error "line 4668 column 58: model is not available")
(error "line 4669 column 56: model is not available")
(error "line 4670 column 56: model is not available")
(error "line 4671 column 57: model is not available")
(error "line 4672 column 56: model is not available")
(error "line 4673 column 57: model is not available")
(error "line 4674 column 56: model is not available")
(error "line 4675 column 58: model is not available")
(error "line 4676 column 57: model is not available")
(error "line 4677 column 58: model is not available")
(error "line 4678 column 58: model is not available")
(error "line 4679 column 56: model is not available")
(error "line 4680 column 57: model is not available")
(error "line 4681 column 56: model is not available")
(error "line 4682 column 28: model is not available")
(error "line 4683 column 35: model is not available")
(error "line 4684 column 29: model is not available")
(error "line 4685 column 36: model is not available")
(error "line 4686 column 29: model is not available")
(error "line 4687 column 29: model is not available")
(error "line 4688 column 29: model is not available")
(error "line 4689 column 36: model is not available")
(error "line 4690 column 28: model is not available")
(error "line 4691 column 35: model is not available")
(error "line 4692 column 28: model is not available")
(error "line 4693 column 28: model is not available")
(error "line 4694 column 28: model is not available")
(error "line 4695 column 35: model is not available")
(error "line 4696 column 28: model is not available")
(error "line 4697 column 35: model is not available")
(error "line 4698 column 28: model is not available")
(error "line 4699 column 28: model is not available")
(error "line 4700 column 28: model is not available")
(error "line 4701 column 35: model is not available")
(error "line 4702 column 28: model is not available")
(error "line 4703 column 35: model is not available")
(error "line 4704 column 29: model is not available")
(error "line 4705 column 29: model is not available")
(error "line 4706 column 36: model is not available")
(error "line 4707 column 29: model is not available")
(error "line 4708 column 36: model is not available")
(error "line 4709 column 29: model is not available")
(error "line 4710 column 36: model is not available")
(error "line 4711 column 29: model is not available")
(error "line 4712 column 36: model is not available")
(error "line 4713 column 29: model is not available")
(error "line 4714 column 36: model is not available")
(error "line 4715 column 29: model is not available")
(error "line 4716 column 36: model is not available")
(error "line 4717 column 29: model is not available")
(error "line 4718 column 29: model is not available")
(error "line 4719 column 36: model is not available")
(error "line 4720 column 29: model is not available")
(error "line 4721 column 36: model is not available")
(error "line 4722 column 28: model is not available")
(error "line 4723 column 35: model is not available")
(error "line 4724 column 29: model is not available")
(error "line 4725 column 36: model is not available")
(error "line 4726 column 29: model is not available")
(error "line 4727 column 36: model is not available")
(error "line 4728 column 29: model is not available")
(error "line 4729 column 36: model is not available")
(error "line 4730 column 28: model is not available")
(error "line 4731 column 28: model is not available")
(error "line 4732 column 35: model is not available")
(error "line 4733 column 28: model is not available")
(error "line 4734 column 35: model is not available")
(error "line 4735 column 28: model is not available")
(error "line 4736 column 35: model is not available")
(error "line 4737 column 28: model is not available")
(error "line 4738 column 35: model is not available")
(error "line 4739 column 28: model is not available")
(error "line 4740 column 35: model is not available")
(error "line 4741 column 28: model is not available")
(error "line 4742 column 35: model is not available")
(error "line 4743 column 46: model is not available")
(error "line 4744 column 46: model is not available")
(error "line 4745 column 46: model is not available")
(error "line 4746 column 46: model is not available")
(error "line 4747 column 46: model is not available")
(error "line 4748 column 46: model is not available")
(error "line 4749 column 54: model is not available")
(error "line 4750 column 54: model is not available")
(error "line 4751 column 54: model is not available")
(error "line 4752 column 54: model is not available")
(error "line 4753 column 54: model is not available")
(error "line 4754 column 54: model is not available")
(error "line 4755 column 54: model is not available")
(error "line 4756 column 54: model is not available")
(error "line 4757 column 54: model is not available")
(error "line 4758 column 40: model is not available")
(error "line 4759 column 40: model is not available")
(error "line 4760 column 40: model is not available")
(error "line 4761 column 40: model is not available")
(error "line 4762 column 40: model is not available")
(error "line 4763 column 40: model is not available")
(error "line 4764 column 41: model is not available")
(error "line 4765 column 41: model is not available")
(error "line 4766 column 41: model is not available")
(error "line 4767 column 41: model is not available")
(error "line 4768 column 41: model is not available")
(error "line 4769 column 41: model is not available")
(error "line 4770 column 50: model is not available")
(error "line 4771 column 50: model is not available")
(error "line 4772 column 50: model is not available")
(error "line 4773 column 50: model is not available")
(error "line 4774 column 50: model is not available")
(error "line 4775 column 50: model is not available")
(error "line 4776 column 43: model is not available")
(error "line 4777 column 43: model is not available")
(error "line 4778 column 43: model is not available")
(error "line 4779 column 43: model is not available")
(error "line 4780 column 43: model is not available")
(error "line 4781 column 43: model is not available")
(error "line 4782 column 30: model is not available")
(error "line 4783 column 30: model is not available")
(error "line 4784 column 30: model is not available")
(error "line 4785 column 36: model is not available")
(error "line 4786 column 36: model is not available")
(error "line 4787 column 36: model is not available")
(error "line 4788 column 36: model is not available")
(error "line 4789 column 36: model is not available")
(error "line 4790 column 36: model is not available")
(error "line 4791 column 30: model is not available")
(error "line 4792 column 30: model is not available")
(error "line 4793 column 30: model is not available")
(error "line 4795 column 10: model is not available")
(:added-eqs                      12636
 :arith-bound-propagations-cheap 3133
 :arith-bound-propagations-lp    1666
 :arith-conflicts                20
 :arith-lower                    2295
 :arith-make-feasible            620
 :arith-max-columns              304
 :arith-max-rows                 247
 :arith-propagations             3133
 :arith-upper                    2086
 :array-ax1                      3
 :binary-propagations            287001
 :bv-bit2core                    56744
 :bv-diseqs                      13
 :bv-dynamic-diseqs              1038
 :bv->core-eq                    1205
 :conflicts                      450
 :decisions                      2227
 :del-clause                     33866
 :eliminated-applications        16
 :eliminated-vars                26
 :max-memory                     18.80
 :memory                         5.93
 :minimized-lits                 5462
 :mk-bool-var                    29195
 :mk-clause                      68739
 :num-allocs                     48628165
 :num-checks                     1
 :propagations                   1040637
 :restarts                       4
 :rlimit-count                   1514533
 :time                           0.41
 :total-time                     0.43)

real	0m0.432s
user	0m0.421s
sys	0m0.010s
State: RE Run_time: 0.43390727043151855